; benchmark generated from python API
(set-info :status unknown)
(declare-fun s () Int)
(define-funs-rec ( ( Tn_06 ((x!1 Int)) Int)
                   ( pn_06 ((x!1 Int)) Int)
                   ( T2_01 ((x!1 Int)) Int)
                   ( p2_01 ((x!1 Int)) Int))
                 ( ((_ pn_06 0) x!1)
                   (let ((a!1 (mod (- x!1 ((_ pn_06 0) (div x!1 s))) s)))
                     (ite (= x!1 0) 0 a!1))
                   (mod ((_ p2_01 0) x!1) 2)
                   (ite (= x!1 0) 0 (+ ((_ p2_01 0) (div x!1 2)) x!1))))
(assert
 (forall ((n Int) )(let ((?x810 ((_ Tn_06 0) n)))
 (let (($x2853 (= ?x810 n)))
 (let ((?x5396 ((_ T2_01 0) n)))
 (let (($x4474 (= ?x5396 n)))
 (let (($x551 (and $x4474 $x2853)))
 (let (($x387 (< n s)))
 (let (($x5490 (>= n 0)))
 (let (($x427 (and $x5490 $x387)))
 (=> $x427 $x551))))))))))
 )
(assert
 (let ((?x3287 ((_ T2_01 0) s)))
 (= ?x3287 1)))
(assert
 (let ((?x4366 ((_ Tn_06 0) s)))
 (= ?x4366 1)))
(assert
 (forall ((n Int) )(let ((?x810 ((_ Tn_06 0) n)))
(let ((?x5396 ((_ T2_01 0) n)))
(let (($x877 (= ?x5396 ?x810)))
(let (($x5490 (>= n 0)))
(=> $x5490 $x877))))))
)
(check-sat)
